Problem:    
Rows:       256
Columns:    89 (72 integer, 72 binary)
Non-zeros:  960
Status:     INTEGER OPTIMAL
Objective:  value = 107.455383 (MINimum)

   No.   Row name        Activity     Lower bound   Upper bound
------ ------------    ------------- ------------- -------------
     1 r.5                   1107.46             0               
     2 r.6                  -959.099      -987.863               
     3 r.7                   107.455             0               
     4 r.8                   40.9007      -977.974               
     5 r.9                   107.455             0               
     6 r.10                  -981.77      -985.514               
     7 r.11                  1107.46             0               
     8 r.12                 -926.915      -974.242               
     9 r.13                  107.455             0               
    10 r.14                  76.4482      -984.353               
    11 r.15                  1107.46             0               
    12 r.16                 -952.673      -967.702               
    13 r.17                  1107.46             0               
    14 r.18                 -987.081      -990.826               
    15 r.19                  107.455             0               
    16 r.20                 -978.112      -981.857               
    17 r.21                  1107.46             0               
    18 r.22                 -972.749      -987.777               
    19 r.23                  107.455             0               
    20 r.24                  42.5012      -977.167               
    21 r.25                  1107.46             0               
    22 r.26                 -997.449      -997.449               
    23 r.27                  107.455             0               
    24 r.28                 -971.579      -971.579               
    25 r.29                  1107.46             0               
    26 r.30                 -892.545      -933.445               
    27 r.31                  107.455             0               
    28 r.32                  107.455      -852.562               
    29 r.33                  107.455             0               
    30 r.34                  107.455      -981.006               
    31 r.35                  1107.46             0               
    32 r.36                 -892.545      -968.993               
    33 r.37                        1             1             = 
    34 r.38                        1             1             = 
    35 r.39                        1             1             = 
    36 r.40                        1             1             = 
    37 r.41                        1             1             = 
    38 r.42                        1             1             = 
    39 r.43                        1             1             = 
    40 r.44                        1             1             = 
    41 r.45                     1001             2               
    42 r.46                    -1001         -1001               
    43 r.47                   977.33      -985.514               
    44 r.48                     1001             2               
    45 r.49                    -1001         -1001               
    46 r.50                  2032.18      -974.242               
    47 r.51                     1001             2               
    48 r.52                    -1001         -1001               
    49 r.53                  2035.55      -984.353               
    50 r.54                     1001             2               
    51 r.55                    -1001         -1001               
    52 r.56                  2006.43      -967.702               
    53 r.57                        2             2               
    54 r.58                       -2         -1001               
    55 r.59                 -27.9817      -990.826               
    56 r.60                     1000             2               
    57 r.61                    -1000         -1001               
    58 r.62                  980.987      -981.857               
    59 r.63                        2             2               
    60 r.64                       -2         -1001               
    61 r.65                 -13.6494      -987.777               
    62 r.66                     1000             2               
    63 r.67                    -1000         -1001               
    64 r.68                   2001.6      -977.167               
    65 r.69                 -962.844      -987.863               
    66 r.70                  37.1559      -977.974               
    67 r.71                   13.662      -987.863               
    68 r.72                  1013.66      -977.974               
    69 r.73                 -933.445      -933.445               
    70 r.74                  66.5547      -852.562               
    71 r.75                 -933.445      -933.445               
    72 r.76                  66.5547      -852.562               
    73 r.77                     1001             2               
    74 r.78                    -1001         -1001               
    75 r.79                  2066.55      -981.006               
    76 r.80                     1001             2               
    77 r.81                    -1001         -1001               
    78 r.82                  2066.55      -968.993               
    79 r.83                     1001             2               
    80 r.84                    -1001         -1001               
    81 r.85                  3022.67       12.1367               
    82 r.86                     1001             2               
    83 r.87                    -1001         -1001               
    84 r.88                  1967.82       22.0261               
    85 r.89                     1000             2               
    86 r.90                    -1000         -1001               
    87 r.91                  3058.22      -984.353               
    88 r.92                        2             2               
    89 r.93                       -2         -1001               
    90 r.94                 -25.7581      -967.702               
    91 r.95                     1001             2               
    92 r.96                    -1001         -1001               
    93 r.97                  2994.69      -990.826               
    94 r.98                     1001             2               
    95 r.99                    -1001         -1001               
    96 r.100                 948.803      -981.857               
    97 r.101                    1001             2               
    98 r.102                   -1001         -1001               
    99 r.103                 3009.02      -987.777               
   100 r.104                    1001             2               
   101 r.105                   -1001         -1001               
   102 r.106                 1969.42      -977.167               
   103 r.107                -985.514      -985.514               
   104 r.108                 -930.66      -974.242               
   105 r.109                -9.00833      -985.514               
   106 r.110                 45.8463      -974.242               
   107 r.111                    1001             2               
   108 r.112                   -1001         -1001               
   109 r.113                 3089.23      -933.445               
   110 r.114                    1001             2               
   111 r.115                   -1001         -1001               
   112 r.116                 2034.37      -852.562               
   113 r.117                 1089.23      -981.006               
   114 r.118                  89.225      -968.993               
   115 r.119                 34.3704      -981.006               
   116 r.120                 -965.63      -968.993               
   117 r.121                    1001             2               
   118 r.122                   -1001         -1001               
   119 r.123                 1964.45       12.1367               
   120 r.124                    1001             2               
   121 r.125                   -1001         -1001               
   122 r.126                 1993.57       22.0261               
   123 r.127                    1000             2               
   124 r.128                   -1000         -1001               
   125 r.129                 941.782       14.4856               
   126 r.130                       2             2               
   127 r.131                      -2         -1001               
   128 r.132                 25.7581       25.7581               
   129 r.133                 61.4195      -984.353               
   130 r.134                -967.702      -967.702               
   131 r.135                 1056.75      -984.353               
   132 r.136                  27.631      -967.702               
   133 r.137                    1001             2               
   134 r.138                   -1001         -1001               
   135 r.139                  1950.8      -987.777               
   136 r.140                    1001             2               
   137 r.141                   -1001         -1001               
   138 r.142                 1995.17      -977.167               
   139 r.143                 72.7034      -984.353               
   140 r.144                -956.418      -967.702               
   141 r.145                 1049.21      -984.353               
   142 r.146                 20.0882      -967.702               
   143 r.147                    1001             2               
   144 r.148                   -1001         -1001               
   145 r.149                 2031.01      -933.445               
   146 r.150                    1001             2               
   147 r.151                   -1001         -1001               
   148 r.152                 2060.13      -852.562               
   149 r.153                 31.0072      -981.006               
   150 r.154                -968.993      -968.993               
   151 r.155                 60.1285      -981.006               
   152 r.156                -939.872      -968.993               
   153 r.157                       2             2               
   154 r.158                      -2         -1001               
   155 r.159                  25.872       12.1367               
   156 r.160                    1000             2               
   157 r.161                   -1000         -1001               
   158 r.162                  3021.2       22.0261               
   159 r.163                    1001             2               
   160 r.164                   -1001         -1001               
   161 r.165                  1003.2       14.4856               
   162 r.166                    1001             2               
   163 r.167                   -1001         -1001               
   164 r.168                 3053.39       25.7581               
   165 r.169                       2             2               
   166 r.170                      -2         -1001               
   167 r.171                -987.777      -987.777               
   168 r.172                    1000             2               
   169 r.173                   -1000         -1001               
   170 r.174                 3022.81      -977.167               
   171 r.175                -990.826      -990.826               
   172 r.176                -981.857      -981.857               
   173 r.177                -14.3197      -990.826               
   174 r.178                -5.35098      -981.857               
   175 r.179                       2             2               
   176 r.180                      -2         -1001               
   177 r.181                -907.573      -933.445               
   178 r.182                    1000             2               
   179 r.183                   -1000         -1001               
   180 r.184                 3087.76      -852.562               
   181 r.185                 92.4267      -981.006               
   182 r.186                -907.573      -968.993               
   183 r.187                 1087.76      -981.006               
   184 r.188                 87.7594      -968.993               
   185 r.189                       2             2               
   186 r.190                      -2         -1001               
   187 r.191                 12.1367       12.1367               
   188 r.192                    1000             2               
   189 r.193                   -1000         -1001               
   190 r.194                    2000       22.0261               
   191 r.195                    1001             2               
   192 r.196                   -1001         -1001               
   193 r.197                 989.466       14.4856               
   194 r.198                    1001             2               
   195 r.199                   -1001         -1001               
   196 r.200                 2032.18       25.7581               
   197 r.201                    1001             2               
   198 r.202                   -1001         -1001               
   199 r.203                 2047.68       15.6466               
   200 r.204                    1001             2               
   201 r.205                   -1001         -1001               
   202 r.206                 2006.43       32.2982               
   203 r.207                       2             2               
   204 r.208                      -2         -1001               
   205 r.209                 984.155        9.1742               
   206 r.210                    1000             2               
   207 r.211                   -1000         -1001               
   208 r.212                 980.987       18.1429               
   209 r.213                -976.493      -987.777               
   210 r.214                 38.7564      -977.167               
   211 r.215                0.012615      -987.777               
   212 r.216                 1015.26      -977.167               
   213 r.217                -921.309      -933.445               
   214 r.218                 78.6914      -852.562               
   215 r.219                -933.445      -933.445               
   216 r.220                 66.5547      -852.562               
   217 r.221                 78.6914      -981.006               
   218 r.222                -921.309      -968.993               
   219 r.223                 66.5547      -981.006               
   220 r.224                -933.445      -968.993               
   221 r.225                    1001             2               
   222 r.226                   -1001         -1001               
   223 r.227                 910.775       14.4856               
   224 r.228                    1001             2               
   225 r.229                   -1001         -1001               
   226 r.230                 1965.63       25.7581               
   227 r.231                    1001             2               
   228 r.232                   -1001         -1001               
   229 r.233                 1968.99       15.6466               
   230 r.234                    1001             2               
   231 r.235                   -1001         -1001               
   232 r.236                 1939.87       32.2982               
   233 r.237                       2             2               
   234 r.238                      -2         -1001               
   235 r.239                 905.464        9.1742               
   236 r.240                    1000             2               
   237 r.241                   -1000         -1001               
   238 r.242                 914.432       18.1429               
   239 r.243                    1001             2               
   240 r.244                   -1001         -1001               
   241 r.245                    2000      -981.006               
   242 r.246                    1001             2               
   243 r.247                   -1001         -1001               
   244 r.248                    2000      -968.993               
   245 r.249                    1001             2               
   246 r.250                   -1001         -1001               
   247 r.251                 1933.45       12.1367               
   248 r.252                    1001             2               
   249 r.253                   -1001         -1001               
   250 r.254                 1933.45       22.0261               
   251 r.255                    1001             2               
   252 r.256                   -1001         -1001               
   253 r.257                    2000       66.5547               
   254 r.258                    1001             2               
   255 r.259                   -1001         -1001               
   256 r.260                    2000       147.438               

   No. Column name       Activity     Lower bound   Upper bound
------ ------------    ------------- ------------- -------------
     1 tt                    107.455             0               
     2 s_1_1        *              1             0             1 
     3 t_1_1                 66.5547             0               
     4 s_1_7        *              1             0             1 
     5 s_2_1        *              0             0             1 
     6 t_2_1                 66.5547             0               
     7 s_2_7        *              0             0             1 
     8 s_1_2        *              0             0             1 
     9 t_1_2                 1089.23             0               
    10 s_1_8        *              0             0             1 
    11 s_2_2        *              1             0             1 
    12 t_2_2                 34.3704             0               
    13 s_2_8        *              1             0             1 
    14 s_1_3        *              0             0             1 
    15 t_1_3                 31.0072             0               
    16 s_2_3        *              1             0             1 
    17 t_2_3                 60.1285             0               
    18 s_1_4        *              1             0             1 
    19 t_1_4                 92.4267             0               
    20 s_2_4        *              0             0             1 
    21 t_2_4                 1087.76             0               
    22 s_1_5        *              1             0             1 
    23 t_1_5                 78.6914             0               
    24 s_2_5        *              0             0             1 
    25 t_2_5                 66.5547             0               
    26 s_1_6        *              1             0             1 
    27 t_1_6                 103.711             0               
    28 s_2_6        *              0             0             1 
    29 t_2_6                 1080.22             0               
    30 t_1_7                       0             0               
    31 t_2_7                       0             0               
    32 t_1_8                       0             0               
    33 t_2_8                       0             0               
    34 r_1_1_2      *              1             0             1 
    35 u_1_1_2      *              0             0             1 
    36 r_2_1_2      *              1             0             1 
    37 u_2_1_2      *              0             0             1 
    38 r_1_1_3      *              1             0             1 
    39 u_1_1_3      *              0             0             1 
    40 r_2_1_3      *              1             0             1 
    41 u_2_1_3      *              0             0             1 
    42 r_1_1_4      *              0             0             1 
    43 u_1_1_4      *              0             0             1 
    44 r_2_1_4      *              1             0             1 
    45 u_2_1_4      *              0             0             1 
    46 r_1_1_5      *              0             0             1 
    47 u_1_1_5      *              0             0             1 
    48 r_2_1_5      *              1             0             1 
    49 u_2_1_5      *              0             0             1 
    50 r_1_1_8      *              1             0             1 
    51 u_1_1_8      *              0             0             1 
    52 r_2_1_8      *              1             0             1 
    53 u_2_1_8      *              0             0             1 
    54 r_1_2_3      *              1             0             1 
    55 u_1_2_3      *              0             0             1 
    56 r_2_2_3      *              0             0             1 
    57 u_2_2_3      *              0             0             1 
    58 r_1_2_4      *              1             0             1 
    59 u_1_2_4      *              0             0             1 
    60 r_2_2_4      *              1             0             1 
    61 u_2_2_4      *              0             0             1 
    62 r_1_2_5      *              1             0             1 
    63 u_1_2_5      *              0             0             1 
    64 r_2_2_5      *              1             0             1 
    65 u_2_2_5      *              0             0             1 
    66 r_1_2_7      *              1             0             1 
    67 u_1_2_7      *              0             0             1 
    68 r_2_2_7      *              1             0             1 
    69 u_2_2_7      *              0             0             1 
    70 r_1_3_5      *              1             0             1 
    71 u_1_3_5      *              0             0             1 
    72 r_2_3_5      *              1             0             1 
    73 u_2_3_5      *              0             0             1 
    74 r_1_3_7      *              1             0             1 
    75 u_1_3_7      *              0             0             1 
    76 r_2_3_7      *              1             0             1 
    77 u_2_3_7      *              0             0             1 
    78 r_1_4_5      *              0             0             1 
    79 u_1_4_5      *              1             0             1 
    80 r_2_4_5      *              1             0             1 
    81 u_2_4_5      *              0             0             1 
    82 r_1_4_7      *              0             0             1 
    83 u_1_4_7      *              1             0             1 
    84 r_2_4_7      *              1             0             1 
    85 u_2_4_7      *              0             0             1 
    86 r_1_7_8      *              1             0             1 
    87 u_1_7_8      *              0             0             1 
    88 r_2_7_8      *              1             0             1 
    89 u_2_7_8      *              0             0             1 

Integer feasibility conditions:

KKT.PE: max.abs.err = 4.55e-13 on row 22
        max.rel.err = 2.05e-16 on row 22
        High quality

KKT.PB: max.abs.err = 4.55e-13 on row 171
        max.rel.err = 4.58e-16 on row 171
        High quality

End of output
